(set-option :produce-models true); benchmark generated from python API
(set-info :status unknown)
(declare-fun l_1_0_8 () Real)
(declare-fun l_1_0_7 () Real)
(declare-fun l_1_0_4 () Real)
(declare-fun l_1_0_3 () Real)
(declare-fun l_1_0_15 () Real)
(declare-fun l_1_0_14 () Real)
(declare-fun l_1_0_13 () Real)
(declare-fun l_1_0_12 () Real)
(declare-fun l_1_0_1 () Real)
(declare-fun _a_1_ () Real)
(declare-fun _a_0_ () Real)
(declare-fun l_1_0_2 () Real)
(declare-fun l_1_0_17 () Real)
(declare-fun l_1_0_16 () Real)
(declare-fun _a_2_ () Real)
(declare-fun l_1_0_9 () Real)
(declare-fun l_1_0_6 () Real)
(declare-fun l_1_0_5 () Real)
(declare-fun l_1_0_11 () Real)
(declare-fun l_1_0_10 () Real)
(declare-fun _a_3_ () Real)
(declare-fun l_1_1_9 () Real)
(declare-fun l_1_1_8 () Real)
(declare-fun l_1_1_7 () Real)
(declare-fun l_1_1_4 () Real)
(declare-fun l_1_1_3 () Real)
(declare-fun l_1_1_15 () Real)
(declare-fun l_1_1_14 () Real)
(declare-fun l_1_1_13 () Real)
(declare-fun l_1_1_1 () Real)
(declare-fun l_1_1_2 () Real)
(declare-fun l_1_1_17 () Real)
(declare-fun l_1_1_16 () Real)
(declare-fun l_1_1_6 () Real)
(declare-fun l_1_1_5 () Real)
(declare-fun l_1_1_12 () Real)
(declare-fun l_1_1_11 () Real)
(declare-fun l_1_1_10 () Real)
(assert
 (let ((?x240 (* l_1_0_15 l_1_0_15)))
 (let ((?x241 (- (- (- (- _a_1_) (* 1.0 l_1_0_1)) (* 1.0 l_1_0_12)) l_1_0_13)))
 (let ((?x211 (- (- (- (- (- ?x241 l_1_0_14) ?x240) (* 1.0 l_1_0_3)) l_1_0_4) (* 1.0 l_1_0_7))))
 (= (+ (- ?x211 l_1_0_8) 5.0) 0.0)))))
(assert
 (= (- 1.0 _a_0_) 0.0))
(assert
 (let ((?x120 (* l_1_0_17 l_1_0_17)))
 (= (- (- (- (- _a_2_) (* l_1_0_16 l_1_0_16)) ?x120) l_1_0_2) 0.0)))
(assert
 (let ((?x67 (- (+ (+ (- _a_3_) (* 1.0 l_1_0_10)) l_1_0_11) (* (* 2.0 l_1_0_15) l_1_0_16))))
 (= (+ (+ (+ ?x67 (* 1.0 l_1_0_5)) l_1_0_6) l_1_0_9) 0.0)))
(assert
 (>= l_1_0_1 0.0))
(assert
 (>= l_1_0_2 0.0))
(assert
 (>= l_1_0_3 0.0))
(assert
 (>= l_1_0_4 0.0))
(assert
 (>= l_1_0_5 0.0))
(assert
 (>= l_1_0_6 0.0))
(assert
 (>= l_1_0_7 0.0))
(assert
 (>= l_1_0_8 0.0))
(assert
 (>= l_1_0_9 0.0))
(assert
 (>= l_1_0_10 0.0))
(assert
 (>= l_1_0_11 0.0))
(assert
 (>= l_1_0_12 0.0))
(assert
 (>= l_1_0_13 0.0))
(assert
 (>= l_1_0_14 0.0))
(assert
 (>= l_1_0_15 0.0))
(assert
 (>= l_1_0_17 0.0))
(assert
 (let ((?x170 (* l_1_1_15 l_1_1_15)))
 (let ((?x108 (- (- (- (- (- _a_1_) l_1_1_1) (* 1.0 l_1_1_13)) l_1_1_14) ?x170)))
 (let ((?x202 (- (- (- (- ?x108 l_1_1_3) (* 1.0 l_1_1_4)) (* 1.0 l_1_1_7)) l_1_1_8)))
 (= (+ (- ?x202 (* 1.0 l_1_1_9)) 5.0) 0.0)))))
(assert
 (= (- 1.0 _a_0_) 0.0))
(assert
 (let ((?x75 (* l_1_1_17 l_1_1_17)))
 (= (- (- (- (- _a_2_) (* l_1_1_16 l_1_1_16)) ?x75) l_1_1_2) 0.0)))
(assert
 (let ((?x245 (- (- (- (- (- _a_3_) (* 1.0 l_1_1_10)) l_1_1_11) l_1_1_12) (* (* 2.0 l_1_1_15) l_1_1_16))))
 (= (+ (- (- ?x245 l_1_1_5) (* 1.0 l_1_1_6)) 1.0) 0.0)))
(assert
 (>= l_1_1_1 0.0))
(assert
 (>= l_1_1_2 0.0))
(assert
 (>= l_1_1_3 0.0))
(assert
 (>= l_1_1_4 0.0))
(assert
 (>= l_1_1_5 0.0))
(assert
 (>= l_1_1_6 0.0))
(assert
 (>= l_1_1_7 0.0))
(assert
 (>= l_1_1_8 0.0))
(assert
 (>= l_1_1_9 0.0))
(assert
 (>= l_1_1_10 0.0))
(assert
 (>= l_1_1_11 0.0))
(assert
 (>= l_1_1_12 0.0))
(assert
 (>= l_1_1_13 0.0))
(assert
 (>= l_1_1_14 0.0))
(assert
 (>= l_1_1_15 0.0))
(assert
 (>= l_1_1_17 0.0))
(check-sat)
(get-model)